100
128
6
33
12
35
38
9
5
4
25
21
30
21
58
53
54
48
15
11
41
9
46
48
53
53
48
23
18
1
32
58
34
28
27
25
44
23
3
34
52
33
42
52
27
34
10
33
10
21
26
40
29
15
5
40
13
19
38
2
64
13
37
26
4
45
29
20
3
12
5
52
59
11
55
17
37
13
63
27
14
14
32
22
27
13
20
17
30
13
13
16
55
26
60
26
22
29
13
1
26
51